tsp_instances/TSP50/instance44.tsp
NODE_COORD_SECTION
0 170 43
1 157 152
2 125 29
3 13 33
4 50 89
5 69 27
6 142 1
7 84 190
8 22 14
9 138 3
10 85 185
11 155 102
12 139 159
13 117 103
14 170 117
15 98 63
16 160 139
17 64 94
18 184 55
19 8 122
20 12 17
21 8 7
22 187 97
23 189 191
24 79 149
25 97 13
26 147 52
27 52 46
28 180 86
29 95 82
30 31 7
31 54 98
32 130 41
33 12 148
34 147 126
35 31 106
36 70 66
37 127 92
38 4 120
39 34 160
40 70 111
41 102 65
42 51 117
43 154 133
44 135 193
45 177 75
46 12 38
47 88 9
48 125 18
49 109 44
