tsp_instances/TSP50/instance44.opt.tour
TOUR_SECTION
1
19
46
29
23
15
12
35
44
17
2
13
24
45
8
11
25
40
34
20
39
36
43
41
18
32
5
37
28
47
4
21
22
9
31
6
48
26
10
7
49
3
33
50
16
42
30
14
38
27
-1